(set-option :print-success false)
(set-logic QF_UF)
(declare-sort x149 0)
(declare-sort x210 0)
(declare-sort x343 0)
(declare-sort x166 0)
(declare-fun x96 () Bool)
(declare-fun x289 () Bool)
(declare-fun x251 () Bool)
(declare-fun x372 () Bool)
(declare-fun x164 () Bool)
(declare-fun x348 () Bool)
(declare-fun x48 () Bool)
(declare-fun x196 () Bool)
(declare-fun x236 () x149)
(declare-fun x303 () Bool)
(declare-fun x317 () x149)
(declare-fun x128 () x149)
(declare-fun x410 () Bool)
(declare-fun x174 () Bool)
(declare-fun x2 () Bool)
(declare-fun x239 () Bool)
(declare-fun x400 () Bool)
(declare-fun x332 () x149)
(declare-fun x161 () Bool)
(declare-fun x256 () Bool)
(declare-fun x36 () Bool)
(declare-fun x46 () Bool)
(declare-fun x264 () x149)
(declare-fun x10 () Bool)
(declare-fun x75 () x149)
(declare-fun x221 () x166)
(declare-fun x346 () x149)
(declare-fun x199 () Bool)
(declare-fun x136 () x149)
(declare-fun x334 () Bool)
(declare-fun x277 () x149)
(declare-fun x231 () Bool)
(declare-fun x292 () x149)
(declare-fun x295 () Bool)
(declare-fun x409 () Bool)
(declare-fun x283 () Bool)
(declare-fun x112 () x149)
(declare-fun x212 () Bool)
(declare-fun x52 () Bool)
(declare-fun x148 () Bool)
(declare-fun x137 () Bool)
(declare-fun x320 () Bool)
(declare-fun x247 () Bool)
(declare-fun x252 () Bool)
(declare-fun x220 () Bool)
(declare-fun x50 () Bool)
(declare-fun x117 () Bool)
(declare-fun x206 () Bool)
(declare-fun x222 () Bool)
(declare-fun x310 () x149)
(declare-fun x194 () x149)
(declare-fun x77 () x149)
(declare-fun x385 () Bool)
(declare-fun x316 () Bool)
(declare-fun x386 () x149)
(declare-fun x44 () Bool)
(declare-fun x305 () Bool)
(declare-fun x73 () Bool)
(declare-fun x253 () x149)
(declare-fun x170 () Bool)
(declare-fun x21 () Bool)
(declare-fun x240 (x166) x149)
(declare-fun x123 () x149)
(declare-fun x74 () Bool)
(declare-fun x250 () x149)
(declare-fun x390 () Bool)
(declare-fun x7 () Bool)
(declare-fun x25 () x149)
(declare-fun x121 () Bool)
(declare-fun x243 () Bool)
(declare-fun x158 () Bool)
(declare-fun x405 () Bool)
(declare-fun x144 () x166)
(declare-fun x382 () Bool)
(declare-fun x97 () Bool)
(declare-fun x307 () x149)
(declare-fun x408 () Bool)
(declare-fun x302 () x166)
(declare-fun x132 () Bool)
(declare-fun x344 () x149)
(declare-fun x177 () Bool)
(declare-fun x38 () x149)
(declare-fun x155 () x166)
(declare-fun x163 () Bool)
(declare-fun x347 () x149)
(declare-fun x229 () Bool)
(declare-fun x370 () x149)
(declare-fun x116 () Bool)
(declare-fun x270 () Bool)
(declare-fun x272 () x166)
(declare-fun x187 () Bool)
(declare-fun x318 () x149)
(declare-fun x122 () Bool)
(declare-fun x296 () Bool)
(declare-fun x392 () Bool)
(declare-fun x404 () Bool)
(declare-fun x139 () x149)
(declare-fun x197 () x149)
(declare-fun x345 () Bool)
(declare-fun x103 () Bool)
(declare-fun x297 () Bool)
(declare-fun x254 () x166)
(declare-fun x384 () x149)
(declare-fun x165 () Bool)
(declare-fun x43 () Bool)
(declare-fun x152 () Bool)
(declare-fun x20 () Bool)
(declare-fun x157 () Bool)
(declare-fun x54 () Bool)
(declare-fun x171 () x149)
(declare-fun x5 () x149)
(declare-fun x65 () Bool)
(declare-fun x191 () Bool)
(declare-fun x173 () Bool)
(declare-fun x181 () x210)
(declare-fun x82 () Bool)
(declare-fun x413 () x149)
(declare-fun x79 () x149)
(declare-fun x301 () Bool)
(declare-fun x167 () Bool)
(declare-fun x321 () Bool)
(declare-fun x358 () x149)
(declare-fun x66 () x149)
(declare-fun x360 () x149)
(declare-fun x12 () Bool)
(declare-fun x153 () Bool)
(declare-fun x59 () x149)
(declare-fun x131 () Bool)
(declare-fun x178 () Bool)
(declare-fun x180 () x149)
(declare-fun x349 () x166)
(declare-fun x293 () Bool)
(declare-fun x78 () Bool)
(declare-fun x183 () Bool)
(declare-fun x288 () x149)
(declare-fun x53 () x149)
(declare-fun x329 () x149)
(declare-fun x32 () x166)
(declare-fun x238 () Bool)
(declare-fun x214 () x149)
(declare-fun x259 () Bool)
(declare-fun x114 () x149)
(declare-fun x291 () x149)
(declare-fun x89 () x149)
(declare-fun x207 () x149)
(declare-fun x280 () x166)
(declare-fun x106 () Bool)
(declare-fun x339 () x149)
(declare-fun x88 () x149)
(declare-fun x40 () x149)
(declare-fun x389 () x149)
(declare-fun x273 () Bool)
(declare-fun x94 () x149)
(declare-fun x175 () Bool)
(declare-fun x322 () Bool)
(declare-fun x31 () Bool)
(declare-fun x263 () x149)
(declare-fun x312 () Bool)
(declare-fun x185 () x149)
(declare-fun x271 () Bool)
(declare-fun x357 () x149)
(declare-fun x176 () Bool)
(declare-fun x27 () Bool)
(declare-fun x24 () Bool)
(declare-fun x67 () Bool)
(declare-fun x354 () x149)
(declare-fun x102 () Bool)
(declare-fun x33 () Bool)
(declare-fun x314 () Bool)
(declare-fun x55 () x149)
(declare-fun x3 () Bool)
(declare-fun x30 () Bool)
(declare-fun x100 () Bool)
(declare-fun x287 () Bool)
(declare-fun x414 () x166)
(declare-fun x340 () Bool)
(declare-fun x184 () x149)
(declare-fun x217 () Bool)
(declare-fun x42 () Bool)
(declare-fun x154 () x149)
(declare-fun x28 () x149)
(declare-fun x362 () Bool)
(declare-fun x218 () x149)
(declare-fun x248 () x149)
(declare-fun x353 () Bool)
(declare-fun x51 () x166)
(declare-fun x377 () Bool)
(declare-fun x71 () x149)
(declare-fun x35 () Bool)
(declare-fun x393 () Bool)
(declare-fun x237 () Bool)
(declare-fun x92 () Bool)
(declare-fun x325 () Bool)
(declare-fun x211 () Bool)
(declare-fun x383 () x166)
(declare-fun x80 () x149)
(declare-fun x304 () Bool)
(declare-fun x224 () Bool)
(declare-fun x179 () Bool)
(declare-fun x198 () x149)
(declare-fun x255 () Bool)
(declare-fun x26 () Bool)
(declare-fun x110 () Bool)
(declare-fun x125 () Bool)
(declare-fun x190 () Bool)
(declare-fun x285 () x149)
(declare-fun x226 () x149)
(declare-fun x395 () Bool)
(declare-fun x371 () x149)
(declare-fun x201 () Bool)
(declare-fun x398 () x149)
(declare-fun x311 () Bool)
(declare-fun x9 () x149)
(declare-fun x275 () x149)
(declare-fun x56 () Bool)
(declare-fun x244 () x149)
(declare-fun x361 () x149)
(declare-fun x145 () x149)
(declare-fun x326 () Bool)
(declare-fun x286 () Bool)
(declare-fun x135 () Bool)
(declare-fun x331 () x149)
(declare-fun x407 () Bool)
(declare-fun x234 () Bool)
(declare-fun x1 () Bool)
(declare-fun x323 () Bool)
(declare-fun x143 () Bool)
(declare-fun x85 () x149)
(declare-fun x13 () x149)
(declare-fun x258 (x149 x210) x166)
(declare-fun x359 () Bool)
(declare-fun x151 () Bool)
(declare-fun x350 () Bool)
(declare-fun x124 () Bool)
(declare-fun x245 () Bool)
(declare-fun x23 () x149)
(declare-fun x127 () Bool)
(declare-fun x141 () x149)
(declare-fun x142 () Bool)
(declare-fun x380 () x149)
(declare-fun x406 () Bool)
(declare-fun x87 () Bool)
(declare-fun x376 () Bool)
(declare-fun x115 () Bool)
(declare-fun x306 () x149)
(declare-fun x150 () Bool)
(declare-fun x367 () x149)
(declare-fun x195 () x149)
(declare-fun x219 () Bool)
(declare-fun x299 () Bool)
(declare-fun x300 () Bool)
(declare-fun x369 () x149)
(declare-fun x396 () Bool)
(declare-fun x72 () Bool)
(declare-fun x246 () Bool)
(declare-fun x356 () Bool)
(declare-fun x160 () Bool)
(declare-fun x208 () Bool)
(declare-fun x223 () x149)
(declare-fun x193 () Bool)
(declare-fun x298 () Bool)
(declare-fun x119 () Bool)
(declare-fun x203 () x149)
(declare-fun x233 () Bool)
(declare-fun x81 () x166)
(declare-fun x8 () x149)
(declare-fun x266 () x149)
(declare-fun x374 () x149)
(declare-fun x70 () x149)
(declare-fun x365 () x149)
(declare-fun x403 () Bool)
(declare-fun x107 () Bool)
(declare-fun x58 () Bool)
(declare-fun x391 () x166)
(declare-fun x60 () Bool)
(declare-fun x133 () Bool)
(declare-fun x76 () x149)
(declare-fun x242 () x149)
(declare-fun x202 () Bool)
(declare-fun x146 () Bool)
(declare-fun x397 () Bool)
(declare-fun x156 () Bool)
(declare-fun x6 () x166)
(declare-fun x69 () Bool)
(declare-fun x62 () Bool)
(declare-fun x147 () Bool)
(declare-fun x129 () Bool)
(declare-fun x204 () x149)
(declare-fun x261 () Bool)
(declare-fun x235 () Bool)
(declare-fun x186 () Bool)
(declare-fun x342 () x149)
(declare-fun x37 () x149)
(declare-fun x95 () Bool)
(declare-fun x281 () Bool)
(declare-fun x315 () Bool)
(declare-fun x381 () Bool)
(declare-fun x227 () Bool)
(declare-fun x262 () x149)
(declare-fun x99 () Bool)
(declare-fun x225 () x166)
(declare-fun x228 () x166)
(declare-fun x134 (Bool x343) x166)
(declare-fun x57 () x149)
(declare-fun x241 () x149)
(declare-fun x388 () Bool)
(declare-fun x276 () Bool)
(declare-fun x260 () x149)
(declare-fun x172 () Bool)
(declare-fun x387 () x149)
(declare-fun x209 () Bool)
(declare-fun x18 () x149)
(declare-fun x324 () Bool)
(declare-fun x284 () Bool)
(declare-fun x113 () Bool)
(declare-fun x84 () Bool)
(declare-fun x309 () Bool)
(declare-fun x411 () Bool)
(declare-fun x162 () x149)
(declare-fun x278 () x149)
(declare-fun x47 () Bool)
(declare-fun x11 () x149)
(declare-fun x336 () Bool)
(declare-fun x34 () Bool)
(declare-fun x200 () x149)
(declare-fun x379 () Bool)
(declare-fun x104 () Bool)
(declare-fun x279 () x149)
(declare-fun x41 () Bool)
(declare-fun x313 () Bool)
(declare-fun x368 () Bool)
(declare-fun x399 () x149)
(declare-fun x373 () x166)
(declare-fun x294 () Bool)
(declare-fun x216 () Bool)
(declare-fun x22 () Bool)
(declare-fun x4 () Bool)
(declare-fun x159 () Bool)
(declare-fun x282 () Bool)
(declare-fun x169 () Bool)
(declare-fun x90 () x149)
(declare-fun x249 () Bool)
(declare-fun x213 () x149)
(declare-fun x168 () x149)
(declare-fun x19 () x149)
(declare-fun x138 () Bool)
(declare-fun x182 () x149)
(declare-fun x352 () x149)
(declare-fun x290 () Bool)
(declare-fun x45 () Bool)
(declare-fun x308 () Bool)
(declare-fun x328 () x149)
(declare-fun x83 () Bool)
(declare-fun x68 () x149)
(declare-fun x140 () x149)
(declare-fun x265 () Bool)
(declare-fun x351 () x149)
(declare-fun x126 () x149)
(declare-fun x378 () Bool)
(declare-fun x319 () Bool)
(declare-fun x188 () Bool)
(declare-fun x268 () x149)
(declare-fun x394 () Bool)
(declare-fun x109 () Bool)
(declare-fun x402 () x149)
(declare-fun x412 () Bool)
(declare-fun x363 () Bool)
(declare-fun x364 () Bool)
(declare-fun x338 () x149)
(declare-fun x108 () Bool)
(declare-fun x375 () x149)
(declare-fun x341 () Bool)
(declare-fun x257 () x149)
(declare-fun x274 () x149)
(declare-fun x16 () Bool)
(declare-fun x355 () Bool)
(declare-fun x64 () x149)
(declare-fun x101 () x149)
(declare-fun x63 () Bool)
(declare-fun x232 () x149)
(declare-fun x49 () Bool)
(declare-fun x333 () Bool)
(declare-fun x98 () Bool)
(declare-fun x118 () Bool)
(declare-fun x86 () Bool)
(declare-fun x205 () Bool)
(declare-fun x335 () x149)
(declare-fun x269 () Bool)
(declare-fun x29 () Bool)
(declare-fun x93 () Bool)
(declare-fun x105 () Bool)
(declare-fun x215 () x149)
(declare-fun x120 () x149)
(declare-fun x337 () Bool)
(declare-fun x111 () x149)
(declare-fun x401 () Bool)
(declare-fun x330 () Bool)
(declare-fun x230 () x149)
(declare-fun x366 () Bool)
(declare-fun x17 () Bool)
(declare-fun x15 () Bool)
(declare-fun x61 () Bool)
(declare-fun x189 () Bool)
(declare-fun x91 () x166)
(declare-fun x192 () Bool)
(declare-fun x39 () x343)
(declare-fun x327 () Bool)
(declare-fun x267 () x149)
(declare-fun x14 () Bool)
(declare-fun x130 () x149)
(assert (= (ite x305 x367 x352) x185))
(assert (= (= x310 x241) x401))
(assert (= (ite x63 x331 x68) x248))
(assert (= (= x35 x21) x286))
(assert (= x296 (= x40 x365)))
(assert (= (= x68 x226) x67))
(assert (= (ite x282 x136 x226) x130))
(assert (= (= x349 x81) x45))
(assert (= (= x226 x38) x212))
(assert (= (ite x296 x365 x226) x126))
(assert (= x164 (= x241 x23)))
(assert (= (x134 x326 x39) x91))
(assert (= x402 (ite x100 x120 x226)))
(assert (= x148 (or x270 x237)))
(assert (= (not x106) x29))
(assert (= (not x303) x208))
(assert (= x284 (= x349 x51)))
(assert (= (not x56) x103))
(assert (= x353 (or x282 x301)))
(assert (= (x134 x179 x39) x302))
(assert (= x217 (= x44 x252)))
(assert (= x281 (and x31 x113)))
(assert (= x98 (and x336 x172)))
(assert (= (ite x212 x223 x38) x168))
(assert (= (and x282 x115) x385))
(assert (= (x134 x327 x39) x81))
(assert (= x51 (x134 x104 x39)))
(assert (= (= x349 x91) x65))
(assert (= (= x248 x380) x311))
(assert (= (= x310 x40) x100))
(assert (= (not x131) x252))
(assert (= (= x101 x226) x394))
(assert (= x275 (ite x282 x130 x40)))
(assert (= x404 (and x334 x381)))
(assert (= x97 (and x147 x100)))
(assert (= (ite x179 x40 x38) x79))
(assert (= (= x263 x226) x211))
(assert (= x318 (ite x353 x275 x194)))
(assert (= (ite x211 x244 x226) x90))
(assert (= (and x129 x103) x283))
(assert (= x135 (= x347 x226)))
(assert (= (or x401 x156) x400))
(assert (= (ite x42 x200 x226) x184))
(assert (= x170 (and x394 x103)))
(assert (= (ite x164 x11 x310) x317))
(assert (= x230 (ite x363 x79 x226)))
(assert (= x25 (ite x394 x101 x226)))
(assert (= (not x21) x209))
(assert (= (ite x63 x260 x226) x331))
(assert (distinct x349 x144 x383))
(assert (= (ite x63 x68 x218) x145))
(assert (= (and x150 x216) x382))
(assert (= x242 (ite x164 x80 x226)))
(assert (= (= x151 x69) x409))
(assert (= (ite x29 x241 x347) x360))
(assert (= (or x363 x312) x117))
(assert (= x163 (and x330 x164)))
(assert (= x254 (x134 x156 x39)))
(assert (= x33 (ite x216 x382 x261)))
(assert (= (= x128 x371) x160))
(assert (= (ite x103 x241 x310) x80))
(assert (= (ite x129 x214 x184) x292))
(assert (= x270 (= x68 x241)))
(assert (= (not x249) x119))
(assert (= x32 (ite x63 x6 x383)))
(assert (= x151 (ite x129 x283 x186)))
(assert (= (ite x211 x288 x263) x370))
(assert (= x381 (= x226 x23)))
(assert (= x393 (= x315 x122)))
(assert (= (or x287 x41) x227))
(assert (= x325 (= x253 x185)))
(assert (= (ite x312 x295 x14) x406))
(assert (= (ite x216 x141 x40) x339))
(assert (= x194 (ite x135 x306 x347)))
(assert (= x147 (and x156 (not x56))))
(assert (= (or x300 x227) x63))
(assert (= (or x100 x401) x305))
(assert (= (ite x108 x242 x226) x11))
(assert (= x312 (= x40 x38)))
(assert (= (and x284 x45) x177))
(assert (= x142 (and x100 x256)))
(assert (= x31 (= x23 x40)))
(assert (= (ite x129 x101 x226) x214))
(assert (= x158 (= x326 x87)))
(assert (= x260 (ite x148 x389 x111)))
(assert (= x156 (not x199)))
(assert (= (= x241 x38) x363))
(assert (= (ite x211 x43 x287) x245))
(assert (= x261 (or x377 x239)))
(assert (= (ite x100 x142 x30) x315))
(assert (= x355 (and (not x106) x179)))
(assert (= x124 (= x241 x365)))
(assert (= x191 (and x212 x29)))
(assert (= x282 (= x347 x40)))
(assert (= (= x40 x263) x216))
(assert (distinct x226 x218 x241 x40))
(assert (= x196 (and x216 x392)))
(assert (= x172 (= x373 x349)))
(assert (= x1 (= x78 x243)))
(assert (= (and x29 x312) x295))
(assert (= (ite x216 x196 x245) x243))
(assert (= x408 (and x336 x152)))
(assert (= x399 (ite x135 x198 x226)))
(assert (= (= x236 x369) x49))
(assert (= (ite x100 x97 x400) x2))
(assert (= x336 (= x349 x254)))
(assert (= (= x33 x104) x201))
(assert (= (ite x312 x338 x230) x384))
(assert (= x262 (ite x296 x126 x114)))
(assert (= (or x15 x235) x209))
(assert (= (not x251) x104))
(assert (= x324 (or x239 x216)))
(assert (= (ite x31 x360 x226) x198))
(assert (= x237 (= x68 x40)))
(assert (= x208 (and x172 x4)))
(assert (= (or x56 x41) x256))
(assert (= x386 (ite x324 x339 x370)))
(assert (= (= x310 x226) x108))
(assert (= (not (= x310 x241)) x271))
(assert (= (and x211 x404) x43))
(assert (= (ite x394 x25 x101) x277))
(assert (= x246 (= x183 x73)))
(assert (= (= x101 x40) x129))
(assert (= x293 (not (= x347 x241))))
(assert (= x352 (ite x108 x266 x310)))
(assert (= x141 (ite x216 x354 x226)))
(assert (= (not x403) x29))
(assert (= x354 (ite x350 x226 x263)))
(assert (= (and x172 x152) x15))
(assert (= (ite x211 x358 x226) x288))
(assert (= x301 (= x241 x347)))
(assert (= x411 (and x31 x403)))
(assert (= x145 x23))
(assert (= x48 (= x406 x178)))
(assert (= (ite x220 x257 x365) x291))
(assert (= x157 (and x355 x282)))
(assert (= x267 (ite x205 x292 x277)))
(assert (= x342 (ite x31 x399 x347)))
(assert (= (or x301 x179) x7))
(assert x234)
(assert (= (and x251 x284) x119))
(assert (= (and x303 x286 x106 x35 x293 x199 x249 x388 x131 x271 x56 x176 x217) x234))
(assert (= (not x222) x345))
(assert (= (ite x220 x365 x226) x257))
(assert (= (= x241 x101) x42))
(assert (= (not x44) x259))
(assert (= (ite x108 x233 x41) x30))
(assert (= (or x287 x350) x392))
(assert (= x220 (= x226 x365)))
(assert (= (x240 x32) x23))
(assert (= (and x345 x296) x297))
(assert (= (x258 x68 x181) x6))
(assert (= x186 (ite x394 x170 x103)))
(assert (= x150 (and (not x350) x377)))
(assert (= x244 (ite x381 x75 x226)))
(assert (= x371 (ite x117 x384 x168)))
(assert (= (ite x56 x226 x310) x120))
(assert (= (and x164 x231) x190))
(assert (= (= x263 x241) x239))
(assert (= (= x386 x213) x321))
(assert (= (ite x368 x262 x291) x369))
(assert (= x152 (= x349 x302)))
(assert (= x334 (and x211 x174)))
(assert (= x111 (ite x67 x241 x68)))
(assert (= x367 (ite x100 x402 x40)))
(assert (= (or x364 x340) x259))
(assert (= (ite x381 x90 x263) x358))
(assert (= x26 (and x220 x345)))
(assert (= x340 (or x177 x192)))
(assert (= (and x45 x65) x192))
(assert (= (ite x106 x226 x347) x136))
(assert (= x14 (ite x212 x191 x29)))
(assert (= x46 (and x135 x281)))
(assert (= (= x2 x327) x323))
(assert (= x174 (and x381 x222)))
(assert (= x364 (and x284 x65)))
(assert (= (ite x108 x317 x226) x266))
(assert (= (ite x124 x278 x226) x114))
(assert (= (not x388) x179))
(assert (= (ite x220 x26 x345) x133))
(assert (= (and x311 x54 x201 x160 x48 x12 x58 x246 x321 x323 x409 x325 x393 x1 x49 x158) x176))
(assert (= (and x163 x108) x233))
(assert (= x338 (ite x312 x38 x226)))
(assert (= x377 (not x4)))
(assert (= x389 (ite x237 x226 x40)))
(assert (= x113 (and x411 x135)))
(assert (= x235 (or x408 x98)))
(assert (= x103 (not x231)))
(assert (= x58 (= x318 x204)))
(assert (= (= x267 x335) x12))
(assert (= x223 (ite x212 x38 x226)))
(assert (= x345 (not x350)))
(assert (= (ite x345 x241 x263) x75))
(assert (= (ite x296 x297 x133) x314))
(assert (= x183 (ite x282 x385 x20)))
(assert (= x20 (ite x135 x46 x300)))
(assert (= x205 (or x42 x129)))
(assert (= x330 (and x108 x190)))
(assert (= (= x294 x314) x54))
(assert (= x373 (x134 x377 x39)))
(assert (= (or x300 x106) x115))
(assert (= x200 (ite x156 x40 x101)))
(assert (= x87 (ite x282 x157 x7)))
(assert (= (ite x377 x40 x365) x278))
(assert (= (or x296 x124) x368))
(assert (= x306 (ite x135 x342 x226)))
(check-sat)
(exit)
